c turning on binary mode checking
c parsing input formula with 259840 variables and 1039924 clauses
c finished parsing, read 23709411 bytes from proof file
c detected empty clause; start verification via backward checking
c 7620 of 1039924 clauses in core                            
c 9837 of 612659 lemmas in core using 85836 resolution steps
c 0 RAT lemmas in core; 585 redundant literals in core lemmas
s VERIFIED
c verification time: 2.679 seconds
